Gamma Mg 1x1x18
0
Gamma
1  1  18
0  0  0
