Mg c type screw
  3.19347920199178
   14.0000000000000000  -8.0829037686547611   0.0000000000000000
    0.0000000000000000  16.1658075373095222   0.0000000000000000
    0.0000000000000000   0.0000000000000000   1.6230793389944500
  513
Selective Dynamics
Direct
   0.5000000000000000  0.5357142857142857  0.5000305175780559  T T T
   0.5357142857142857  0.5357142857142857  0.8333231608072994  T T T
   0.4642857142857142  0.5000000000000000  1.1666768391927766  T T T
   0.5000000000000000  0.4642857142857142  1.4999694824219783  T T T
   0.4642857142857142  0.4642857142857142  0.8333231608074718  T T T
   0.5357142857142857  0.5000000000000000  1.1666768391929494  T T T
   0.5000000000000000  0.5714285714285714  1.0000305175780557  T T T
   0.5000000000000000  0.4285714285714286  1.0000305175782283  T T T
   0.4285714285714285  0.5000000000000000  0.6666768391927772  T T T
   0.5714285714285714  0.5714285714285714  0.3333231608072996  T T T
   0.4285714285714285  0.4285714285714285  1.3333231608074716  T T T
   0.5714285714285714  0.5000000000000000  1.6666768391929494  T T T
   0.5357142857142857  0.4285714285714286  1.5530967505445612  T T T
   0.4285714285714285  0.5357142857142857  1.1136106062263753  T T T
   0.4642857142857142  0.5714285714285714  0.5530967505443889  T T T
   0.5357142857142857  0.6071428571428571  0.4469032494555139  T T T
   0.5714285714285714  0.6071428571428571  0.8863893937736462  T T T
   0.4285714285714285  0.3928571428571428  0.8863893937738188  T T T
   0.4642857142857142  0.3928571428571428  1.4469032494556859  T T T
   0.5714285714285714  0.4642857142857143  1.1136106062265476  T T T
   0.6071428571428571  0.5714285714285714  0.7802569278409616  T T T
   0.3928571428571428  0.4285714285714285  0.7802569278411342  T T T
   0.6071428571428572  0.5357142857142857  1.2197430721593512  T T T
   0.3928571428571428  0.4642857142857142  1.2197430721591784  T T T
   0.4642857142857142  0.6071428571428571  1.0386347506564682  T T T
   0.5357142857142857  0.6428571428571428  0.9613652493434043  T T T
   0.4642857142857142  0.3571428571428572  0.9613652493435766  T T T
   0.5357142857142857  0.3928571428571428  1.0386347506566407  T T T
   0.3928571428571428  0.5357142857142857  0.6280726061142957  T T T
   0.6071428571428571  0.4642857142857143  1.6280726061144681  T T T
   0.6071428571428572  0.6428571428571428  0.3719273938857410  T T T
   0.3928571428571428  0.3571428571428572  1.3719273938859129  T T T
   0.6428571428571429  0.5357142857142857  1.7052810722714304  T T T
   0.3571428571428571  0.3928571428571428  1.2947189277290370  T T T
   0.3571428571428571  0.4642857142857142  0.7052810722712582  T T T
   0.6428571428571429  0.6071428571428571  0.2947189277288649  T T T
   0.5000000000000000  0.6428571428571428  0.5000305175780559  T T T
   0.5000000000000000  0.3571428571428572  1.5000305175782280  T T T
   0.6428571428571429  0.6428571428571428  0.8333231608072994  T T T
   0.3571428571428571  0.3571428571428572  0.8333231608074718  T T T
   0.6428571428571429  0.5000000000000000  1.1666768391929494  T T T
   0.3571428571428571  0.4999999999999999  1.1666768391927766  T T T
   0.4285714285714285  0.6071428571428571  0.5650597009735664  T T T
   0.5714285714285714  0.6785714285714286  0.4349402990263611  T T T
   0.6071428571428571  0.6785714285714286  0.8983523442028046  T T T
   0.3928571428571428  0.3214285714285714  0.8983523442029770  T T T
   0.4285714285714285  0.3214285714285715  1.4349402990265332  T T T
   0.5714285714285714  0.3928571428571429  1.5650597009737384  T T T
   0.3928571428571428  0.5714285714285714  1.1016476557971977  T T T
   0.6071428571428572  0.4285714285714286  1.1016476557973705  T T T
   0.3214285714285714  0.3928571428571428  0.7682939774119689  T T T
   0.3214285714285714  0.4285714285714285  1.2317060225883563  T T T
   0.6785714285714286  0.5714285714285714  1.2317060225885286  T T T
   0.6785714285714286  0.6071428571428572  0.7682939774117963  T T T
   0.5000000000000000  0.6785714285714285  1.0000305175780557  T T T
   0.5000000000000000  0.3214285714285715  1.0000305175782283  T T T
   0.3214285714285714  0.4999999999999999  0.6666768391927772  T T T
   0.6785714285714286  0.5000000000000000  1.6666768391929494  T T T
   0.6785714285714286  0.6785714285714286  0.3333231608072996  T T T
   0.3214285714285714  0.3214285714285714  1.3333231608074716  T T T
   0.4285714285714285  0.6428571428571428  1.0530967505443887  F F F
   0.5714285714285714  0.7142857142857142  0.9469032494555136  F F F
   0.4285714285714285  0.2857142857142857  0.9469032494556860  F F F
   0.5714285714285714  0.3571428571428572  1.0530967505445610  F F F
   0.3571428571428571  0.2857142857142857  1.3863893937738185  F F F
   0.3571428571428571  0.5714285714285714  0.6136106062263754  F F F
   0.6428571428571429  0.4285714285714286  1.6136106062265474  F F F
   0.6428571428571429  0.7142857142857142  0.3863893937736463  F F F
   0.2857142857142856  0.4285714285714285  0.7197430721591788  F F F
   0.7142857142857144  0.5714285714285714  1.7197430721593510  F F F
   0.7142857142857144  0.6428571428571429  0.2802569278409618  F F F
   0.2857142857142856  0.3571428571428571  1.2802569278411335  F F F
   0.4642857142857143  0.6785714285714285  0.5248568137526826  F F F
   0.5357142857142857  0.7142857142857142  0.4751431862471794  F F F
   0.4642857142857142  0.2857142857142857  1.4751431862473516  F F F
   0.5357142857142857  0.3214285714285715  1.5248568137528549  F F F
   0.7142857142857143  0.6785714285714286  0.8084968646326502  F F F
   0.6785714285714286  0.7142857142857142  0.8582104921382016  F F F
   0.3214285714285714  0.2857142857142857  0.8582104921383739  F F F
   0.2857142857142856  0.3214285714285714  0.8084968646328227  F F F
   0.2857142857142856  0.4642857142857142  1.1915031353674548  F F F
   0.3214285714285714  0.5357142857142857  1.1417895078618492  F F F
   0.6785714285714286  0.4642857142857143  1.1417895078620215  F F F
   0.7142857142857144  0.5357142857142857  1.1915031353676271  F F F
   0.3571428571428571  0.6071428571428571  1.0964100096331113  F F F
   0.3928571428571428  0.6428571428571428  0.5702363119814026  F F F
   0.6071428571428572  0.7500000000000000  0.4297636880185354  F F F
   0.6428571428571429  0.7499999999999999  0.9035899903668800  F F F
   0.3571428571428571  0.2500000000000000  0.9035899903670526  F F F
   0.3928571428571428  0.2500000000000000  1.4297636880187072  F F F
   0.6071428571428571  0.3571428571428572  1.5702363119815748  F F F
   0.6428571428571429  0.3928571428571429  1.0964100096332838  F F F
   0.2499999999999999  0.3571428571428571  0.7631173664041380  F F F
   0.2499999999999999  0.3928571428571428  1.2368826335961922  F F F
   0.7500000000000000  0.6071428571428572  1.2368826335963647  F F F
   0.7500000000000000  0.6428571428571429  0.7631173664039654  F F F
   0.4642857142857143  0.2500000000000000  0.9789360286899818  F F F
   0.5357142857142857  0.2857142857142858  1.0210639713102250  F F F
   0.4642857142857142  0.7142857142857142  1.0210639713100527  F F F
   0.5357142857142857  0.7499999999999999  0.9789360286898090  F F F
   0.7142857142857143  0.4642857142857143  1.6455823503046592  F F F
   0.2857142857142856  0.2499999999999999  1.3544176496957401  F F F
   0.2499999999999999  0.2857142857142857  1.3122286719192051  F F F
   0.2499999999999999  0.4642857142857142  0.6877713280810673  F F F
   0.2857142857142856  0.5357142857142856  0.6455823503044870  F F F
   0.7500000000000000  0.5357142857142857  1.6877713280812396  F F F
   0.7500000000000000  0.7142857142857143  0.3122286719190334  F F F
   0.7142857142857144  0.7500000000000000  0.3544176496955680  F F F
   0.5000000000000000  0.7499999999999999  0.5000305175780559  F F F
   0.6071428571428571  0.7857142857142856  0.9394556267399439  F F F
   0.3928571428571428  0.2142857142857143  0.9394556267401164  F F F
   0.5000000000000000  0.2500000000000000  1.5000305175782280  F F F
   0.6071428571428572  0.3214285714285715  1.0605443732601461  F F F
   0.3214285714285714  0.6071428571428571  0.6061629835107905  F F F
   0.3928571428571428  0.6785714285714285  1.0605443732599737  F F F
   0.6785714285714286  0.7857142857142857  0.3938370164892216  F F F
   0.2499999999999999  0.2500000000000000  0.8333231608074718  F F F
   0.2499999999999999  0.4999999999999999  1.1666768391927769  F F F
   0.6785714285714286  0.3928571428571429  1.6061629835109625  F F F
   0.7500000000000000  0.5000000000000000  1.1666768391929494  F F F
   0.7857142857142858  0.6071428571428572  1.7271906948749363  F F F
   0.7500000000000000  0.7500000000000000  0.8333231608072994  F F F
   0.3214285714285713  0.2142857142857142  1.3938370164893934  F F F
   0.2142857142857142  0.3928571428571428  0.7271906948747638  F F F
   0.7857142857142858  0.6785714285714286  0.2728093051253844  F F F
   0.2142857142857141  0.3214285714285713  1.2728093051255567  F F F
   0.4285714285714285  0.7142857142857142  0.5386347506564686  F F F
   0.5714285714285714  0.7857142857142857  0.4613652493434044  F F F
   0.4285714285714285  0.2142857142857143  1.4613652493435763  F F F
   0.5714285714285714  0.2857142857142858  1.5386347506566405  F F F
   0.7142857142857144  0.7857142857142857  0.8719273938857408  F F F
   0.2857142857142856  0.2142857142857142  0.8719273938859133  F F F
   0.2857142857142856  0.5714285714285713  1.1280726061142956  F F F
   0.7142857142857144  0.4285714285714286  1.1280726061144681  F F F
   0.7857142857142858  0.7142857142857143  0.7947189277288647  F F F
   0.2142857142857142  0.2857142857142857  0.7947189277290371  F F F
   0.7857142857142858  0.5714285714285715  1.2052810722714307  F F F
   0.2142857142857141  0.4285714285714285  1.2052810722712579  F F F
   0.3214285714285714  0.1785714285714286  0.9064869206395971  F F F
   0.3214285714285714  0.6428571428571428  1.0935130793605610  F F F
   0.6785714285714286  0.3571428571428572  1.0935130793607335  F F F
   0.3571428571428571  0.6785714285714285  0.5731332422539530  F F F
   0.6428571428571429  0.8214285714285714  0.4268667577459908  F F F
   0.6785714285714286  0.8214285714285714  0.9064869206394247  F F F
   0.3571428571428571  0.1785714285714286  1.4268667577461631  F F F
   0.6428571428571429  0.3214285714285715  1.5731332422541253  F F F
   0.1785714285714285  0.3214285714285714  0.7602204361315902  F F F
   0.1785714285714285  0.3571428571428571  1.2397795638687428  F F F
   0.8214285714285715  0.6428571428571429  1.2397795638689153  F F F
   0.8214285714285715  0.6785714285714286  0.7602204361314179  F F F
   0.5000000000000000  0.7857142857142856  1.0000305175780557  F F F
   0.5000000000000000  0.2142857142857143  1.0000305175782283  F F F
   0.2142857142857142  0.4999999999999999  0.6666768391927772  F F F
   0.7857142857142858  0.5000000000000000  1.6666768391929494  F F F
   0.7857142857142858  0.7857142857142857  0.3333231608072996  F F F
   0.2142857142857141  0.2142857142857142  1.3333231608074716  F F F
   0.4285714285714285  0.7499999999999999  1.0339062738392031  F F F
   0.5714285714285714  0.8214285714285714  0.9660937261606594  F F F
   0.4285714285714285  0.1785714285714287  0.9660937261608317  F F F
   0.5714285714285714  0.2500000000000001  1.0339062738393758  F F F
   0.2499999999999999  0.1785714285714286  1.3672599522249029  F F F
   0.2499999999999999  0.5714285714285714  0.6327400477753107  F F F
   0.7500000000000000  0.4285714285714286  1.6327400477754830  F F F
   0.7500000000000000  0.8214285714285714  0.3672599522247308  F F F
   0.1785714285714285  0.2499999999999999  1.2993863693900458  F F F
   0.1785714285714285  0.4285714285714285  0.7006136306102434  F F F
   0.8214285714285715  0.5714285714285715  1.7006136306104156  F F F
   0.8214285714285715  0.7500000000000000  0.2993863693898736  F F F
   0.4642857142857142  0.7857142857142856  0.5161583217775050  F F F
   0.5357142857142857  0.8214285714285714  0.4838416782223570  F F F
   0.4642857142857142  0.1785714285714286  1.4838416782225292  F F F
   0.5357142857142857  0.2142857142857143  1.5161583217776771  F F F
   0.7857142857142858  0.8214285714285714  0.8495120001630151  F F F
   0.2142857142857142  0.1785714285714286  0.8495120001631875  F F F
   0.7857142857142858  0.4642857142857144  1.1504879998372171  F F F
   0.1785714285714285  0.2142857142857142  0.8171953566080069  F F F
   0.1785714285714285  0.4642857142857142  1.1828046433922592  F F F
   0.2142857142857141  0.5357142857142856  1.1504879998370445  F F F
   0.8214285714285715  0.5357142857142858  1.1828046433924317  F F F
   0.8214285714285715  0.7857142857142857  0.8171953566078346  F F F
   0.3571428571428571  0.7142857142857142  1.0650597009735663  F F F
   0.6428571428571429  0.8571428571428571  0.9349402990263608  F F F
   0.2857142857142856  0.1428571428571428  1.3983523442029768  F F F
   0.3571428571428571  0.1428571428571428  0.9349402990265332  F F F
   0.6428571428571429  0.2857142857142858  1.0650597009737384  F F F
   0.2857142857142856  0.6428571428571428  0.6016476557971980  F F F
   0.7142857142857144  0.3571428571428572  1.6016476557973705  F F F
   0.7142857142857144  0.8571428571428572  0.3983523442028048  F F F
   0.1428571428571427  0.3571428571428571  0.7317060225883564  F F F
   0.8571428571428572  0.6428571428571429  1.7317060225885283  F F F
   0.8571428571428572  0.7142857142857143  0.2682939774117966  F F F
   0.1428571428571427  0.2857142857142856  1.2682939774119688  F F F
   0.3928571428571428  0.1428571428571428  1.4527594514176481  F F F
   0.6071428571428571  0.2500000000000000  1.5472405485825866  F F F
   0.2499999999999999  0.6071428571428571  1.1194668081883494  F F F
   0.3928571428571428  0.7499999999999999  0.5472405485824147  F F F
   0.6071428571428572  0.8571428571428571  0.4527594514174761  F F F
   0.7500000000000000  0.8571428571428571  0.8805331918116781  F F F
   0.2499999999999999  0.1428571428571428  0.8805331918118506  F F F
   0.1428571428571427  0.2499999999999999  0.7861131298031019  F F F
   0.7500000000000000  0.3928571428571429  1.1194668081885220  F F F
   0.8571428571428572  0.7500000000000000  0.7861131298029295  F F F
   0.1428571428571427  0.3928571428571427  1.2138868701972045  F F F
   0.8571428571428572  0.6071428571428572  1.2138868701973768  F F F
   0.3214285714285714  0.7142857142857142  0.5750063731478943  F F F
   0.4642857142857142  0.8214285714285713  1.0144925174659465  F F F
   0.5357142857142857  0.8571428571428570  0.9855074825339153  F F F
   0.6785714285714286  0.8928571428571428  0.4249936268520537  F F F
   0.7142857142857144  0.8928571428571428  0.9082990163771121  F F F
   0.2857142857142856  0.1071428571428572  0.9082990163772845  F F F
   0.3214285714285714  0.1071428571428572  1.4249936268522256  F F F
   0.4642857142857142  0.1428571428571428  0.9855074825340876  F F F
   0.5357142857142857  0.1785714285714287  1.0144925174661188  F F F
   0.6785714285714286  0.2857142857142858  1.5750063731480664  F F F
   0.2857142857142856  0.6785714285714284  1.0917009836228699  F F F
   0.7142857142857144  0.3214285714285715  1.0917009836230425  F F F
   0.1785714285714285  0.1428571428571428  1.3477851606953770  F F F
   0.1071428571428570  0.3214285714285713  1.2416526947626840  F F F
   0.1428571428571427  0.4642857142857142  0.6811388390806976  F F F
   0.1785714285714285  0.5357142857142856  0.6522148393048567  F F F
   0.8214285714285715  0.4642857142857144  1.6522148393050289  F F F
   0.8571428571428572  0.5357142857142858  1.6811388390808695  F F F
   0.8928571428571430  0.7142857142857143  0.7583473052374786  F F F
   0.8571428571428572  0.8214285714285714  0.3188611609193945  F F F
   0.8214285714285715  0.8571428571428572  0.3477851606952049  F F F
   0.1428571428571427  0.1785714285714285  1.3188611609195666  F F F
   0.1071428571428570  0.2857142857142856  0.7583473052376513  F F F
   0.8928571428571430  0.6785714285714286  1.2416526947628568  F F F
   0.3928571428571428  0.1071428571428572  0.9574956124259153  F F F
   0.6071428571428572  0.2142857142857143  1.0425043875743101  F F F
   0.2142857142857142  0.6071428571428571  0.6242029691966264  F F F
   0.7857142857142858  0.3928571428571429  1.6242029691967987  F F F
   0.3928571428571428  0.7857142857142856  1.0425043875741375  F F F
   0.6071428571428572  0.8928571428571428  0.9574956124257429  F F F
   0.7857142857142858  0.8928571428571428  0.3757970308034063  F F F
   0.2142857142857141  0.1071428571428571  1.3757970308035783  F F F
   0.1071428571428570  0.2142857142857142  1.2908492908113725  F F F
   0.1071428571428570  0.3928571428571428  0.7091507091889278  F F F
   0.8928571428571430  0.6071428571428572  1.7091507091890998  F F F
   0.8928571428571430  0.7857142857142858  0.2908492908112005  F F F
   0.5000000000000000  0.8571428571428570  0.5000305175780559  F F F
   0.5000000000000000  0.1428571428571429  1.5000305175782280  F F F
   0.1428571428571427  0.1428571428571428  0.8333231608074718  F F F
   0.8571428571428572  0.5000000000000001  1.1666768391929494  F F F
   0.8571428571428572  0.8571428571428572  0.8333231608072994  F F F
   0.1428571428571427  0.4999999999999999  1.1666768391927766  F F F
   0.4285714285714285  0.8214285714285713  0.5273003088882215  F F F
   0.5714285714285714  0.8928571428571428  0.4726996911116404  F F F
   0.4285714285714285  0.1071428571428572  1.4726996911118126  F F F
   0.5714285714285714  0.1785714285714287  1.5273003088883939  F F F
   0.1785714285714285  0.5714285714285713  1.1393460127263049  F F F
   0.8928571428571429  0.8214285714285714  0.8060533694971094  F F F
   0.8214285714285714  0.8928571428571428  0.8606539872737434  F F F
   0.1785714285714285  0.1071428571428572  0.8606539872739157  F F F
   0.1071428571428570  0.4285714285714285  1.1939466305029989  F F F
   0.8214285714285715  0.4285714285714287  1.1393460127264774  F F F
   0.1071428571428570  0.1785714285714285  0.8060533694972818  F F F
   0.8928571428571430  0.5714285714285715  1.1939466305031714  F F F
   0.2499999999999999  0.0714285714285715  1.4014269459141551  F F F
   0.3214285714285714  0.0714285714285715  0.9319267324716048  F F F
   0.6785714285714286  0.2500000000000000  1.0680732675286733  F F F
   0.2499999999999999  0.6785714285714285  0.5985730540860134  F F F
   0.7500000000000000  0.3214285714285715  1.5985730540861853  F F F
   0.3214285714285714  0.7499999999999999  1.0680732675285007  F F F
   0.6785714285714286  0.9285714285714285  0.9319267324714324  F F F
   0.7500000000000000  0.9285714285714285  0.4014269459139831  F F F
   0.0714285714285713  0.3214285714285713  0.7347195891432908  F F F
   0.9285714285714287  0.6785714285714286  1.7347195891434632  F F F
   0.9285714285714287  0.7500000000000000  0.2652804108568650  F F F
   0.0714285714285712  0.2499999999999999  1.2652804108570372  F F F
   0.3571428571428571  0.7857142857142856  0.5530967505443889  F F F
   0.3571428571428571  0.0714285714285715  1.4469032494556859  F F F
   0.6428571428571429  0.2142857142857143  1.5530967505445612  F F F
   0.6428571428571429  0.9285714285714285  0.4469032494555139  F F F
   0.2142857142857142  0.0714285714285715  0.8863893937738188  F F F
   0.2142857142857141  0.6428571428571427  1.1136106062263753  F F F
   0.7857142857142858  0.3571428571428572  1.1136106062265476  F F F
   0.7857142857142858  0.9285714285714285  0.8863893937736462  F F F
   0.0714285714285713  0.2142857142857142  0.7802569278411342  F F F
   0.0714285714285713  0.3571428571428570  1.2197430721591789  F F F
   0.9285714285714287  0.6428571428571429  1.2197430721593512  F F F
   0.9285714285714287  0.7857142857142858  0.7802569278409616  F F F
   0.5000000000000000  0.8928571428571428  1.0000305175780557  F F F
   0.5000000000000000  0.1071428571428572  1.0000305175782283  F F F
   0.1071428571428570  0.4999999999999999  0.6666768391927772  F F F
   0.8928571428571429  0.5000000000000000  1.6666768391929494  F F F
   0.8928571428571430  0.8928571428571428  0.3333231608072996  F F F
   0.1071428571428570  0.1071428571428571  1.3333231608074716  F F F
   0.4285714285714285  0.8571428571428570  1.0248568137526823  F F F
   0.5714285714285714  0.9285714285714285  0.9751431862471793  F F F
   0.4285714285714285  0.0714285714285715  0.9751431862473519  F F F
   0.5714285714285714  0.1428571428571429  1.0248568137528551  F F F
   0.1428571428571427  0.5714285714285713  0.6417895078618492  F F F
   0.8571428571428572  0.9285714285714286  0.3582104921382017  F F F
   0.1428571428571427  0.0714285714285714  1.3582104921383737  F F F
   0.0714285714285713  0.4285714285714285  0.6915031353674552  F F F
   0.8571428571428572  0.4285714285714287  1.6417895078620217  F F F
   0.9285714285714287  0.5714285714285715  1.6915031353676269  F F F
   0.9285714285714287  0.8571428571428572  0.3084968646326506  F F F
   0.0714285714285712  0.1428571428571427  1.3084968646328223  F F F
   0.7142857142857143  0.2500000000000000  1.5762877172249530  F F F
   0.2857142857142856  0.7499999999999999  0.5762877172247810  F F F
   0.7142857142857144  0.9642857142857142  0.4237122827751696  F F F
   0.2857142857142856  0.0357142857142857  1.4237122827753412  F F F
   0.2499999999999999  0.7142857142857142  1.0904196395459831  F F F
   0.7500000000000000  0.9642857142857142  0.9095803604539962  F F F
   0.2499999999999999  0.0357142857142857  0.9095803604541683  F F F
   0.7500000000000000  0.2857142857142858  1.0904196395461556  F F F
   0.9642857142857144  0.7142857142857143  1.2429340388397432  F F F
   0.9642857142857144  0.7500000000000000  0.7570659611605933  F F F
   0.0357142857142855  0.2499999999999999  0.7570659611607660  F F F
   0.0357142857142855  0.2857142857142856  1.2429340388395707  F F F
   0.3571428571428571  0.8214285714285713  1.0485814228307964  F F F
   0.4642857142857142  0.8928571428571428  0.5119324328509587  F F F
   0.5357142857142857  0.9285714285714285  0.4880675671489033  F F F
   0.6428571428571429  0.9642857142857142  0.9514185771690968  F F F
   0.3571428571428571  0.0357142857142857  0.9514185771692690  F F F
   0.4642857142857142  0.0714285714285715  1.4880675671490755  F F F
   0.5357142857142857  0.1071428571428572  1.5119324328511310  F F F
   0.6428571428571429  0.1785714285714287  1.0485814228309687  F F F
   0.1785714285714285  0.6428571428571428  0.6181259339399680  F F F
   0.8928571428571429  0.9285714285714285  0.8452861112364647  F F F
   0.8214285714285715  0.9642857142857143  0.3818740660600586  F F F
   0.1785714285714285  0.0357142857142857  1.3818740660602309  F F F
   0.1071428571428570  0.0714285714285714  0.8452861112366370  F F F
   0.0714285714285713  0.1071428571428571  0.8213602103783066  F F F
   0.0357142857142856  0.3571428571428571  0.7152277444455862  F F F
   0.1071428571428570  0.5357142857142856  1.1547138887635995  F F F
   0.8214285714285715  0.3571428571428572  1.6181259339401401  F F F
   0.8928571428571430  0.4642857142857144  1.1547138887637718  F F F
   0.9285714285714287  0.5357142857142858  1.1786397896221268  F F F
   0.9642857142857144  0.6428571428571429  1.7152277444457584  F F F
   0.9285714285714287  0.8928571428571428  0.8213602103781341  F F F
   0.0357142857142855  0.1785714285714285  1.2847722555547216  F F F
   0.0714285714285712  0.4642857142857141  1.1786397896219545  F F F
   0.9642857142857144  0.8214285714285715  0.2847722555545496  F F F
   0.3928571428571428  0.8571428571428570  0.5353466513255357  F F F
   0.6071428571428572  0.9642857142857142  0.4646533486743303  F F F
   0.1428571428571427  0.0357142857142857  0.8687003297112339  F F F
   0.3928571428571428  0.0357142857142858  1.4646533486745026  F F F
   0.6071428571428572  0.1428571428571429  1.5353466513257081  F F F
   0.1428571428571427  0.6071428571428570  1.1312996702889784  F F F
   0.8571428571428572  0.3928571428571430  1.1312996702891509  F F F
   0.9642857142857144  0.8571428571428572  0.7979459919035430  F F F
   0.8571428571428572  0.9642857142857143  0.8687003297110614  F F F
   0.0357142857142855  0.3928571428571427  1.2020540080965754  F F F
   0.0357142857142855  0.1428571428571428  0.7979459919037155  F F F
   0.9642857142857144  0.6071428571428572  1.2020540080967481  F F F
   0.2142857142857142  0.7142857142857142  0.5964100096331116  F F F
   0.2857142857142856  0.7857142857142856  1.0702363119814025  F F F
   0.7142857142857143  0.9999999999999998  0.9297636880185354  F F F
   0.7857142857142858  1.0000000000000000  0.4035899903668804  F F F
   0.2142857142857141  0.0000000000000000  1.4035899903670523  F F F
   0.2857142857142856  0.0000000000000000  0.9297636880187077  F F F
   0.7142857142857144  0.2142857142857144  1.0702363119815750  F F F
   0.7857142857142858  0.2857142857142858  1.5964100096332834  F F F
   1.0000000000000000  0.7142857142857143  1.7368826335963652  F F F
   -0.0000000000000001  0.2857142857142856  0.7368826335961927  F F F
   1.0000000000000000  0.7857142857142858  0.2631173664039655  F F F
   -0.0000000000000002  0.2142857142857141  1.2631173664041377  F F F
   0.3214285714285714  0.8214285714285713  0.5573406491174396  F F F
   0.6785714285714286  0.9999999999999998  0.4426593508824720  F F F
   0.1785714285714285  0.0000000000000000  0.8906332923468649  F F F
   0.3214285714285714  0.0000000000000001  1.4426593508826442  F F F
   0.6785714285714286  0.1785714285714287  1.5573406491176116  F F F
   0.1785714285714285  0.6785714285714284  1.1093667076533247  F F F
   0.8214285714285715  0.3214285714285715  1.1093667076534972  F F F
   0.8214285714285715  1.0000000000000000  0.8906332923466925  F F F
   -0.0000000000000001  0.3214285714285713  1.2239869707322293  F F F
   1.0000000000000000  0.8214285714285714  0.7760130292679152  F F F
   -0.0000000000000001  0.1785714285714285  0.7760130292680880  F F F
   1.0000000000000000  0.6785714285714286  1.2239869707324016  F F F
   0.4642857142857142  0.9285714285714284  1.0109941878073527  F F F
   0.5357142857142857  0.9642857142857142  0.9890058121925087  F F F
   0.4642857142857142  0.0357142857142857  0.9890058121926812  F F F
   0.5357142857142857  0.0714285714285715  1.0109941878075255  F F F
   0.0714285714285713  0.5357142857142856  0.6556521338072073  F F F
   0.9285714285714287  0.4642857142857144  1.6556521338073793  F F F
   0.9642857142857144  0.5357142857142858  1.6777015445785191  F F F
   0.9285714285714287  0.9642857142857143  0.3443478661928581  F F F
   0.0714285714285712  0.0357142857142856  1.3443478661930301  F F F
   0.0357142857142855  0.0714285714285714  1.3222984554219133  F F F
   0.0357142857142855  0.4642857142857142  0.6777015445783470  F F F
   0.9642857142857144  0.9285714285714286  0.3222984554217411  F F F
   0.3928571428571428  0.8928571428571428  1.0326007005755546  F F F
   0.6071428571428572  0.9999999999999998  0.9673992994243071  F F F
   0.3928571428571428  0.0000000000000001  0.9673992994244797  F F F
   0.6071428571428572  0.1071428571428572  1.0326007005757269  F F F
   -0.0000000000000001  0.3928571428571428  0.6993080573465932  F F F
   0.1071428571428570  0.6071428571428570  0.6340456210389611  F F F
   0.8928571428571429  0.3928571428571429  1.6340456210391332  F F F
   1.0000000000000000  0.6071428571428572  1.6993080573467654  F F F
   1.0000000000000000  0.8928571428571428  0.3006919426535224  F F F
   0.8928571428571430  1.0000000000000000  0.3659543789610817  F F F
   0.1071428571428569  -0.0000000000000001  1.3659543789612538  F F F
   -0.0000000000000002  0.1071428571428570  1.3006919426536943  F F F
   0.5000000000000000  0.9642857142857142  0.5000305175780559  F F F
   0.2499999999999999  -0.0357142857142857  1.4227610162651749  F F F
   0.5000000000000000  0.0357142857142858  1.5000305175782280  F F F
   0.7500000000000000  0.2142857142857144  1.5772389837351217  F F F
   0.2142857142857141  0.7499999999999999  1.0894683730358143  F F F
   0.2499999999999999  0.7857142857142856  0.5772389837349498  F F F
   0.7500000000000000  1.0357142857142856  0.4227610162650027  F F F
   0.7857142857142858  1.0357142857142856  0.9105316269641628  F F F
   0.2142857142857142  -0.0357142857142858  0.9105316269643353  F F F
   0.7857142857142858  0.2500000000000001  1.0894683730359871  F F F
   0.9642857142857144  0.9642857142857143  0.8333231608072994  F F F
   0.0357142857142855  0.0357142857142857  0.8333231608074718  F F F
   0.0357142857142855  0.4999999999999999  1.1666768391927769  F F F
   0.9642857142857144  0.5000000000000001  1.1666768391929494  F F F
   1.0357142857142858  0.7500000000000000  1.2438853053499119  F F F
   1.0357142857142858  0.7857142857142858  0.7561146946504256  F F F
   -0.0357142857142859  0.2142857142857142  0.7561146946505981  F F F
   -0.0357142857142859  0.2499999999999999  1.2438853053497394  F F F
   0.4285714285714285  0.0000000000000001  1.4789360286899815  F F F
   0.5714285714285714  0.0714285714285715  1.5210639713102247  F F F
   0.4285714285714285  0.9285714285714284  0.5210639713100528  F F F
   0.5714285714285714  0.9999999999999998  0.4789360286898093  F F F
   0.0714285714285712  -0.0000000000000001  0.8544176496957404  F F F
   -0.0000000000000001  0.0714285714285714  0.8122286719192053  F F F
   -0.0000000000000001  0.4285714285714285  1.1877713280810673  F F F
   0.0714285714285712  0.5714285714285713  1.1455823503044866  F F F
   0.9285714285714287  0.4285714285714287  1.1455823503046592  F F F
   1.0000000000000000  0.5714285714285715  1.1877713280812396  F F F
   1.0000000000000000  0.9285714285714286  0.8122286719190330  F F F
   0.9285714285714287  1.0000000000000000  0.8544176496955678  F F F
   0.1428571428571427  0.6785714285714284  0.6136106062263754  F F F
   0.3214285714285714  0.8571428571428570  1.0530967505443887  F F F
   0.6785714285714286  1.0357142857142856  0.9469032494555136  F F F
   0.1428571428571427  -0.0357142857142858  1.3863893937738185  F F F