super cell
        3.1934792020
   6.000000000000000   0.000000000000000   0.000000000000000
  -3.000000000000000   5.196152422706632   0.000000000000000
   0.000000000000000   0.000000000000000   6.492317355977800
  288
 Direct
   0.055555555555556   0.111111111111111   0.062500000000000
   0.222222222222222   0.111111111111111   0.062500000000000
   0.388888888888889   0.111111111111111   0.062500000000000
   0.555555555555556   0.111111111111111   0.062500000000000
   0.722222222222222   0.111111111111111   0.062500000000000
   0.888888888888889   0.111111111111111   0.062500000000000
   0.055555555555556   0.277777777777778   0.062500000000000
   0.222222222222222   0.277777777777778   0.062500000000000
   0.388888888888889   0.277777777777778   0.062500000000000
   0.555555555555556   0.277777777777778   0.062500000000000
   0.722222222222222   0.277777777777778   0.062500000000000
   0.888888888888889   0.277777777777778   0.062500000000000
   0.055555555555556   0.444444444444444   0.062500000000000
   0.222222222222222   0.444444444444444   0.062500000000000
   0.388888888888889   0.444444444444444   0.062500000000000
   0.555555555555556   0.444444444444444   0.062500000000000
   0.722222222222222   0.444444444444444   0.062500000000000
   0.888888888888889   0.444444444444444   0.062500000000000
   0.055555555555556   0.611111111111111   0.062500000000000
   0.222222222222222   0.611111111111111   0.062500000000000
   0.388888888888889   0.611111111111111   0.062500000000000
   0.555555555555556   0.611111111111111   0.062500000000000
   0.722222222222222   0.611111111111111   0.062500000000000
   0.888888888888889   0.611111111111111   0.062500000000000
   0.055555555555556   0.777777777777778   0.062500000000000
   0.222222222222222   0.777777777777778   0.062500000000000
   0.388888888888889   0.777777777777778   0.062500000000000
   0.555555555555556   0.777777777777778   0.062500000000000
   0.722222222222222   0.777777777777778   0.062500000000000
   0.888888888888889   0.777777777777778   0.062500000000000
   0.055555555555556   0.944444444444445   0.062500000000000
   0.222222222222222   0.944444444444445   0.062500000000000
   0.388888888888889   0.944444444444445   0.062500000000000
   0.555555555555556   0.944444444444445   0.062500000000000
   0.722222222222222   0.944444444444445   0.062500000000000
   0.888888888888889   0.944444444444445   0.062500000000000
   0.055555555555556   0.111111111111111   0.312500000000000
   0.222222222222222   0.111111111111111   0.312500000000000
   0.388888888888889   0.111111111111111   0.312500000000000
   0.555555555555556   0.111111111111111   0.312500000000000
   0.722222222222222   0.111111111111111   0.312500000000000
   0.888888888888889   0.111111111111111   0.312500000000000
   0.055555555555556   0.277777777777778   0.312500000000000
   0.222222222222222   0.277777777777778   0.312500000000000
   0.388888888888889   0.277777777777778   0.312500000000000
   0.555555555555556   0.277777777777778   0.312500000000000
   0.722222222222222   0.277777777777778   0.312500000000000
   0.888888888888889   0.277777777777778   0.312500000000000
   0.055555555555556   0.444444444444444   0.312500000000000
   0.222222222222222   0.444444444444444   0.312500000000000
   0.388888888888889   0.444444444444444   0.312500000000000
   0.555555555555556   0.444444444444444   0.312500000000000
   0.722222222222222   0.444444444444444   0.312500000000000
   0.888888888888889   0.444444444444444   0.312500000000000
   0.055555555555556   0.611111111111111   0.312500000000000
   0.222222222222222   0.611111111111111   0.312500000000000
   0.388888888888889   0.611111111111111   0.312500000000000
   0.555555555555556   0.611111111111111   0.312500000000000
   0.722222222222222   0.611111111111111   0.312500000000000
   0.888888888888889   0.611111111111111   0.312500000000000
   0.055555555555556   0.777777777777778   0.312500000000000
   0.222222222222222   0.777777777777778   0.312500000000000
   0.388888888888889   0.777777777777778   0.312500000000000
   0.555555555555556   0.777777777777778   0.312500000000000
   0.722222222222222   0.777777777777778   0.312500000000000
   0.888888888888889   0.777777777777778   0.312500000000000
   0.055555555555556   0.944444444444445   0.312500000000000
   0.222222222222222   0.944444444444445   0.312500000000000
   0.388888888888889   0.944444444444445   0.312500000000000
   0.555555555555556   0.944444444444445   0.312500000000000
   0.722222222222222   0.944444444444445   0.312500000000000
   0.888888888888889   0.944444444444445   0.312500000000000
   0.055555555555556   0.111111111111111   0.562500000000000
   0.222222222222222   0.111111111111111   0.562500000000000
   0.388888888888889   0.111111111111111   0.562500000000000
   0.555555555555556   0.111111111111111   0.562500000000000
   0.722222222222222   0.111111111111111   0.562500000000000
   0.888888888888889   0.111111111111111   0.562500000000000
   0.055555555555556   0.277777777777778   0.562500000000000
   0.222222222222222   0.277777777777778   0.562500000000000
   0.388888888888889   0.277777777777778   0.562500000000000
   0.555555555555556   0.277777777777778   0.562500000000000
   0.722222222222222   0.277777777777778   0.562500000000000
   0.888888888888889   0.277777777777778   0.562500000000000
   0.055555555555556   0.444444444444444   0.562500000000000
   0.222222222222222   0.444444444444444   0.562500000000000
   0.388888888888889   0.444444444444444   0.562500000000000
   0.555555555555556   0.444444444444444   0.562500000000000
   0.722222222222222   0.444444444444444   0.562500000000000
   0.888888888888889   0.444444444444444   0.562500000000000
   0.055555555555556   0.611111111111111   0.562500000000000
   0.222222222222222   0.611111111111111   0.562500000000000
   0.388888888888889   0.611111111111111   0.562500000000000
   0.555555555555556   0.611111111111111   0.562500000000000
   0.722222222222222   0.611111111111111   0.562500000000000
   0.888888888888889   0.611111111111111   0.562500000000000
   0.055555555555556   0.777777777777778   0.562500000000000
   0.222222222222222   0.777777777777778   0.562500000000000
   0.388888888888889   0.777777777777778   0.562500000000000
   0.555555555555556   0.777777777777778   0.562500000000000
   0.722222222222222   0.777777777777778   0.562500000000000
   0.888888888888889   0.777777777777778   0.562500000000000
   0.055555555555556   0.944444444444445   0.562500000000000
   0.222222222222222   0.944444444444445   0.562500000000000
   0.388888888888889   0.944444444444445   0.562500000000000
   0.555555555555556   0.944444444444445   0.562500000000000
   0.722222222222222   0.944444444444445   0.562500000000000
   0.888888888888889   0.944444444444445   0.562500000000000
   0.055555555555556   0.111111111111111   0.812500000000000
   0.222222222222222   0.111111111111111   0.812500000000000
   0.388888888888889   0.111111111111111   0.812500000000000
   0.555555555555556   0.111111111111111   0.812500000000000
   0.722222222222222   0.111111111111111   0.812500000000000
   0.888888888888889   0.111111111111111   0.812500000000000
   0.055555555555556   0.277777777777778   0.812500000000000
   0.222222222222222   0.277777777777778   0.812500000000000
   0.388888888888889   0.277777777777778   0.812500000000000
   0.555555555555556   0.277777777777778   0.812500000000000
   0.722222222222222   0.277777777777778   0.812500000000000
   0.888888888888889   0.277777777777778   0.812500000000000
   0.055555555555556   0.444444444444444   0.812500000000000
   0.222222222222222   0.444444444444444   0.812500000000000
   0.388888888888889   0.444444444444444   0.812500000000000
   0.555555555555556   0.444444444444444   0.812500000000000
   0.722222222222222   0.444444444444444   0.812500000000000
   0.888888888888889   0.444444444444444   0.812500000000000
   0.055555555555556   0.611111111111111   0.812500000000000
   0.222222222222222   0.611111111111111   0.812500000000000
   0.388888888888889   0.611111111111111   0.812500000000000
   0.555555555555556   0.611111111111111   0.812500000000000
   0.722222222222222   0.611111111111111   0.812500000000000
   0.888888888888889   0.611111111111111   0.812500000000000
   0.055555555555556   0.777777777777778   0.812500000000000
   0.222222222222222   0.777777777777778   0.812500000000000
   0.388888888888889   0.777777777777778   0.812500000000000
   0.555555555555556   0.777777777777778   0.812500000000000
   0.722222222222222   0.777777777777778   0.812500000000000
   0.888888888888889   0.777777777777778   0.812500000000000
   0.055555555555556   0.944444444444445   0.812500000000000
   0.222222222222222   0.944444444444445   0.812500000000000
   0.388888888888889   0.944444444444445   0.812500000000000
   0.555555555555556   0.944444444444445   0.812500000000000
   0.722222222222222   0.944444444444445   0.812500000000000
   0.888888888888889   0.944444444444445   0.812500000000000
   0.111111111111111   0.055555555555556   0.187500000000000
   0.277777777777778   0.055555555555556   0.187500000000000
   0.444444444444444   0.055555555555556   0.187500000000000
   0.611111111111111   0.055555555555556   0.187500000000000
   0.777777777777778   0.055555555555556   0.187500000000000
   0.944444444444445   0.055555555555556   0.187500000000000
   0.111111111111111   0.222222222222222   0.187500000000000
   0.277777777777778   0.222222222222222   0.187500000000000
   0.444444444444444   0.222222222222222   0.187500000000000
   0.611111111111111   0.222222222222222   0.187500000000000
   0.777777777777778   0.222222222222222   0.187500000000000
   0.944444444444445   0.222222222222222   0.187500000000000
   0.111111111111111   0.388888888888889   0.187500000000000
   0.277777777777778   0.388888888888889   0.187500000000000
   0.444444444444444   0.388888888888889   0.187500000000000
   0.611111111111111   0.388888888888889   0.187500000000000
   0.777777777777778   0.388888888888889   0.187500000000000
   0.944444444444445   0.388888888888889   0.187500000000000
   0.111111111111111   0.555555555555556   0.187500000000000
   0.277777777777778   0.555555555555556   0.187500000000000
   0.444444444444444   0.555555555555556   0.187500000000000
   0.611111111111111   0.555555555555556   0.187500000000000
   0.777777777777778   0.555555555555556   0.187500000000000
   0.944444444444445   0.555555555555556   0.187500000000000
   0.111111111111111   0.722222222222222   0.187500000000000
   0.277777777777778   0.722222222222222   0.187500000000000
   0.444444444444444   0.722222222222222   0.187500000000000
   0.611111111111111   0.722222222222222   0.187500000000000
   0.777777777777778   0.722222222222222   0.187500000000000
   0.944444444444445   0.722222222222222   0.187500000000000
   0.111111111111111   0.888888888888889   0.187500000000000
   0.277777777777778   0.888888888888889   0.187500000000000
   0.444444444444444   0.888888888888889   0.187500000000000
   0.611111111111111   0.888888888888889   0.187500000000000
   0.777777777777778   0.888888888888889   0.187500000000000
   0.944444444444445   0.888888888888889   0.187500000000000
   0.111111111111111   0.055555555555556   0.437500000000000
   0.277777777777778   0.055555555555556   0.437500000000000
   0.444444444444444   0.055555555555556   0.437500000000000
   0.611111111111111   0.055555555555556   0.437500000000000
   0.777777777777778   0.055555555555556   0.437500000000000
   0.944444444444445   0.055555555555556   0.437500000000000
   0.111111111111111   0.222222222222222   0.437500000000000
   0.277777777777778   0.222222222222222   0.437500000000000
   0.444444444444444   0.222222222222222   0.437500000000000
   0.611111111111111   0.222222222222222   0.437500000000000
   0.777777777777778   0.222222222222222   0.437500000000000
   0.944444444444445   0.222222222222222   0.437500000000000
   0.111111111111111   0.388888888888889   0.437500000000000
   0.277777777777778   0.388888888888889   0.437500000000000
   0.444444444444444   0.388888888888889   0.437500000000000
   0.611111111111111   0.388888888888889   0.437500000000000
   0.777777777777778   0.388888888888889   0.437500000000000
   0.944444444444445   0.388888888888889   0.437500000000000
   0.111111111111111   0.555555555555556   0.437500000000000
   0.277777777777778   0.555555555555556   0.437500000000000
   0.444444444444444   0.555555555555556   0.437500000000000
   0.611111111111111   0.555555555555556   0.437500000000000
   0.777777777777778   0.555555555555556   0.437500000000000
   0.944444444444445   0.555555555555556   0.437500000000000
   0.111111111111111   0.722222222222222   0.437500000000000
   0.277777777777778   0.722222222222222   0.437500000000000
   0.444444444444444   0.722222222222222   0.437500000000000
   0.611111111111111   0.722222222222222   0.437500000000000
   0.777777777777778   0.722222222222222   0.437500000000000
   0.944444444444445   0.722222222222222   0.437500000000000
   0.111111111111111   0.888888888888889   0.437500000000000
   0.277777777777778   0.888888888888889   0.437500000000000
   0.444444444444444   0.888888888888889   0.437500000000000
   0.611111111111111   0.888888888888889   0.437500000000000
   0.777777777777778   0.888888888888889   0.437500000000000
   0.944444444444445   0.888888888888889   0.437500000000000
   0.111111111111111   0.055555555555556   0.687500000000000
   0.277777777777778   0.055555555555556   0.687500000000000
   0.444444444444444   0.055555555555556   0.687500000000000
   0.611111111111111   0.055555555555556   0.687500000000000
   0.777777777777778   0.055555555555556   0.687500000000000
   0.944444444444445   0.055555555555556   0.687500000000000
   0.111111111111111   0.222222222222222   0.687500000000000
   0.277777777777778   0.222222222222222   0.687500000000000
   0.444444444444444   0.222222222222222   0.687500000000000
   0.611111111111111   0.222222222222222   0.687500000000000
   0.777777777777778   0.222222222222222   0.687500000000000
   0.944444444444445   0.222222222222222   0.687500000000000
   0.111111111111111   0.388888888888889   0.687500000000000
   0.277777777777778   0.388888888888889   0.687500000000000
   0.444444444444444   0.388888888888889   0.687500000000000
   0.611111111111111   0.388888888888889   0.687500000000000
   0.777777777777778   0.388888888888889   0.687500000000000
   0.944444444444445   0.388888888888889   0.687500000000000
   0.111111111111111   0.555555555555556   0.687500000000000
   0.277777777777778   0.555555555555556   0.687500000000000
   0.444444444444444   0.555555555555556   0.687500000000000
   0.611111111111111   0.555555555555556   0.687500000000000
   0.777777777777778   0.555555555555556   0.687500000000000
   0.944444444444445   0.555555555555556   0.687500000000000
   0.111111111111111   0.722222222222222   0.687500000000000
   0.277777777777778   0.722222222222222   0.687500000000000
   0.444444444444444   0.722222222222222   0.687500000000000
   0.611111111111111   0.722222222222222   0.687500000000000
   0.777777777777778   0.722222222222222   0.687500000000000
   0.944444444444445   0.722222222222222   0.687500000000000
   0.111111111111111   0.888888888888889   0.687500000000000
   0.277777777777778   0.888888888888889   0.687500000000000
   0.444444444444444   0.888888888888889   0.687500000000000
   0.611111111111111   0.888888888888889   0.687500000000000
   0.777777777777778   0.888888888888889   0.687500000000000
   0.944444444444445   0.888888888888889   0.687500000000000
   0.111111111111111   0.055555555555556   0.937500000000000
   0.277777777777778   0.055555555555556   0.937500000000000
   0.444444444444444   0.055555555555556   0.937500000000000
   0.611111111111111   0.055555555555556   0.937500000000000
   0.777777777777778   0.055555555555556   0.937500000000000
   0.944444444444445   0.055555555555556   0.937500000000000
   0.111111111111111   0.222222222222222   0.937500000000000
   0.277777777777778   0.222222222222222   0.937500000000000
   0.444444444444444   0.222222222222222   0.937500000000000
   0.611111111111111   0.222222222222222   0.937500000000000
   0.777777777777778   0.222222222222222   0.937500000000000
   0.944444444444445   0.222222222222222   0.937500000000000
   0.111111111111111   0.388888888888889   0.937500000000000
   0.277777777777778   0.388888888888889   0.937500000000000
   0.444444444444444   0.388888888888889   0.937500000000000
   0.611111111111111   0.388888888888889   0.937500000000000
   0.777777777777778   0.388888888888889   0.937500000000000
   0.944444444444445   0.388888888888889   0.937500000000000
   0.111111111111111   0.555555555555556   0.937500000000000
   0.277777777777778   0.555555555555556   0.937500000000000
   0.444444444444444   0.555555555555556   0.937500000000000
   0.611111111111111   0.555555555555556   0.937500000000000
   0.777777777777778   0.555555555555556   0.937500000000000
   0.944444444444445   0.555555555555556   0.937500000000000
   0.111111111111111   0.722222222222222   0.937500000000000
   0.277777777777778   0.722222222222222   0.937500000000000
   0.444444444444444   0.722222222222222   0.937500000000000
   0.611111111111111   0.722222222222222   0.937500000000000
   0.777777777777778   0.722222222222222   0.937500000000000
   0.944444444444445   0.722222222222222   0.937500000000000
   0.111111111111111   0.888888888888889   0.937500000000000
   0.277777777777778   0.888888888888889   0.937500000000000
   0.444444444444444   0.888888888888889   0.937500000000000
   0.611111111111111   0.888888888888889   0.937500000000000
   0.777777777777778   0.888888888888889   0.937500000000000
   0.944444444444445   0.888888888888889   0.937500000000000
